spring_18/ind_study/IWLS18/exps/ets18_exps/tianka_ckt/exp_1/2nd_sol/tianka.cnf
p cnf 44 123
-4 -1 -2 0
4 1 -2 0
4 -1 2 0
-4 1 2 0
-5 -1 -2 0
5 1 -2 0
5 -1 2 0
-5 1 2 0
-6 2 3 0
6 -2 0
6 -3 0
-7 2 3 0
7 -2 0
7 -3 0
-8 -3 -3 0
8 3 0
8 3 0
-9 -3 -3 0
9 3 0
9 3 0
10 -6 -3 0
-10 6 0
-10 3 0
7 -41 12 0
7 41 -12 0
-7 -42 12 0
-7 42 -12 0
7 -43 13 0
7 43 -13 0
-7 -44 13 0
-7 44 -13 0
3 -12 11 0
3 12 -11 0
-3 -13 11 0
-3 13 -11 0
-14 4 10 0
14 -4 0
14 -10 0
-15 5 11 0
15 -5 0
15 -11 0
-16 -10 -8 0
16 10 -8 0
16 -10 8 0
-16 10 8 0
-17 -11 -9 0
17 11 -9 0
17 -11 9 0
-17 11 9 0
18 -14 -16 0
-18 14 0
-18 16 0
19 -15 -17 0
-19 15 0
-19 17 0
-20 -18 -19 0
20 18 -19 0
20 -18 19 0
-20 18 19 0
-24 -21 -22 0
24 21 -22 0
24 -21 22 0
-24 21 22 0
-25 -21 -22 0
25 21 -22 0
25 -21 22 0
-25 21 22 0
-26 22 23 0
26 -22 0
26 -23 0
-27 22 23 0
27 -22 0
27 -23 0
-28 -23 -23 0
28 23 0
28 23 0
-29 -23 -23 0
29 23 0
29 23 0
30 -26 -23 0
-30 26 0
-30 23 0
27 -41 32 0
27 41 -32 0
-27 -42 32 0
-27 42 -32 0
27 -43 33 0
27 43 -33 0
-27 -44 33 0
-27 44 -33 0
23 -32 31 0
23 32 -31 0
-23 -33 31 0
-23 33 -31 0
-34 24 30 0
34 -24 0
34 -30 0
-35 25 31 0
35 -25 0
35 -31 0
-36 -30 -28 0
36 30 -28 0
36 -30 28 0
-36 30 28 0
-37 -31 -29 0
37 31 -29 0
37 -31 29 0
-37 31 29 0
38 -34 -36 0
-38 34 0
-38 36 0
39 -35 -37 0
-39 35 0
-39 37 0
-40 -38 -39 0
40 38 -39 0
40 -38 39 0
-40 38 39 0
20 0
-40 0
-21 0
-22 0
23 0
